\ Model assignment
\ LP format - for model browsing. Use MPS format to capture full model detail.
\ Signature: 0x2d6354cda59e548f
Minimize
  b[0,0] + b[0,1] + b[0,2] + b[0,3] + b[0,4] + b[1,0] + b[1,1] + b[1,2]
   + b[1,3] + b[1,4] + b[2,0] + b[2,1] + b[2,2] + b[2,3] + b[2,4] + b[3,0]
   + b[3,1] + b[3,2] + b[3,3] + b[3,4] + b[4,0] + b[4,1] + b[4,2] + b[4,3]
   + b[4,4] + r[0] + 2 r[1] + 3 r[2] + 4 r[3] + 5 r[4]
Subject To
 R0: z[0,0] + z[0,1] + z[0,2] + z[0,3] + z[0,4] >= 1
 R1: z[0,0] + z[0,1] + z[0,2] + z[0,3] + z[0,4] <= 5
 R2: z[1,0] + z[1,1] + z[1,2] + z[1,3] + z[1,4] >= 1
 R3: z[1,0] + z[1,1] + z[1,2] + z[1,3] + z[1,4] <= 5
 R4: z[2,0] + z[2,1] + z[2,2] + z[2,3] + z[2,4] >= 1
 R5: z[2,0] + z[2,1] + z[2,2] + z[2,3] + z[2,4] <= 5
 R6: z[3,0] + z[3,1] + z[3,2] + z[3,3] + z[3,4] >= 1
 R7: z[3,0] + z[3,1] + z[3,2] + z[3,3] + z[3,4] <= 5
 R8: z[4,0] + z[4,1] + z[4,2] + z[4,3] + z[4,4] >= 1
 R9: z[4,0] + z[4,1] + z[4,2] + z[4,3] + z[4,4] <= 5
 R10: z[0,0] + z[1,0] + z[2,0] + z[3,0] + z[4,0] >= 1
 R11: z[0,0] + z[1,0] + z[2,0] + z[3,0] + z[4,0] <= 1
 R12: z[0,1] + z[1,1] + z[2,1] + z[3,1] + z[4,1] >= 1
 R13: z[0,1] + z[1,1] + z[2,1] + z[3,1] + z[4,1] <= 1
 R14: z[0,2] + z[1,2] + z[2,2] + z[3,2] + z[4,2] >= 1
 R15: z[0,2] + z[1,2] + z[2,2] + z[3,2] + z[4,2] <= 1
 R16: z[0,3] + z[1,3] + z[2,3] + z[3,3] + z[4,3] >= 1
 R17: z[0,3] + z[1,3] + z[2,3] + z[3,3] + z[4,3] <= 1
 R18: z[0,4] + z[1,4] + z[2,4] + z[3,4] + z[4,4] >= 1
 R19: z[0,4] + z[1,4] + z[2,4] + z[3,4] + z[4,4] <= 1
 c3[0,0]: b[0,0] + r[0] - 74 z[0,0] - 40 z[0,1] - 29 z[0,2] - 60 z[0,3]
   - 31 z[0,4] >= 0
 c3[0,1]: b[0,1] + r[1] - 74 z[0,0] - 40 z[0,1] - 29 z[0,2] - 60 z[0,3]
   - 31 z[0,4] >= 0
 c3[0,2]: b[0,2] + r[2] - 74 z[0,0] - 40 z[0,1] - 29 z[0,2] - 60 z[0,3]
   - 31 z[0,4] >= 0
 c3[0,3]: b[0,3] + r[3] - 74 z[0,0] - 40 z[0,1] - 29 z[0,2] - 60 z[0,3]
   - 31 z[0,4] >= 0
 c3[0,4]: b[0,4] + r[4] - 74 z[0,0] - 40 z[0,1] - 29 z[0,2] - 60 z[0,3]
   - 31 z[0,4] >= 0
 c3[1,0]: b[1,0] + r[0] - 52 z[1,0] - 94 z[1,1] - 39 z[1,2] - 48 z[1,3]
   - 21 z[1,4] >= 0
 c3[1,1]: b[1,1] + r[1] - 52 z[1,0] - 94 z[1,1] - 39 z[1,2] - 48 z[1,3]
   - 21 z[1,4] >= 0
 c3[1,2]: b[1,2] + r[2] - 52 z[1,0] - 94 z[1,1] - 39 z[1,2] - 48 z[1,3]
   - 21 z[1,4] >= 0
 c3[1,3]: b[1,3] + r[3] - 52 z[1,0] - 94 z[1,1] - 39 z[1,2] - 48 z[1,3]
   - 21 z[1,4] >= 0
 c3[1,4]: b[1,4] + r[4] - 52 z[1,0] - 94 z[1,1] - 39 z[1,2] - 48 z[1,3]
   - 21 z[1,4] >= 0
 c3[2,0]: b[2,0] + r[0] - 91 z[2,0] - z[2,1] - 17 z[2,2] - 23 z[2,3]
   - 38 z[2,4] >= 0
 c3[2,1]: b[2,1] + r[1] - 91 z[2,0] - z[2,1] - 17 z[2,2] - 23 z[2,3]
   - 38 z[2,4] >= 0
 c3[2,2]: b[2,2] + r[2] - 91 z[2,0] - z[2,1] - 17 z[2,2] - 23 z[2,3]
   - 38 z[2,4] >= 0
 c3[2,3]: b[2,3] + r[3] - 91 z[2,0] - z[2,1] - 17 z[2,2] - 23 z[2,3]
   - 38 z[2,4] >= 0
 c3[2,4]: b[2,4] + r[4] - 91 z[2,0] - z[2,1] - 17 z[2,2] - 23 z[2,3]
   - 38 z[2,4] >= 0
 c3[3,0]: b[3,0] + r[0] - 43 z[3,0] - 24 z[3,1] - 44 z[3,2] - 6 z[3,3]
   - 75 z[3,4] >= 0
 c3[3,1]: b[3,1] + r[1] - 43 z[3,0] - 24 z[3,1] - 44 z[3,2] - 6 z[3,3]
   - 75 z[3,4] >= 0
 c3[3,2]: b[3,2] + r[2] - 43 z[3,0] - 24 z[3,1] - 44 z[3,2] - 6 z[3,3]
   - 75 z[3,4] >= 0
 c3[3,3]: b[3,3] + r[3] - 43 z[3,0] - 24 z[3,1] - 44 z[3,2] - 6 z[3,3]
   - 75 z[3,4] >= 0
 c3[3,4]: b[3,4] + r[4] - 43 z[3,0] - 24 z[3,1] - 44 z[3,2] - 6 z[3,3]
   - 75 z[3,4] >= 0
 c3[4,0]: b[4,0] + r[0] - 33 z[4,0] - 91 z[4,1] - 15 z[4,2] - 96 z[4,3]
   - 77 z[4,4] >= 0
 c3[4,1]: b[4,1] + r[1] - 33 z[4,0] - 91 z[4,1] - 15 z[4,2] - 96 z[4,3]
   - 77 z[4,4] >= 0
 c3[4,2]: b[4,2] + r[2] - 33 z[4,0] - 91 z[4,1] - 15 z[4,2] - 96 z[4,3]
   - 77 z[4,4] >= 0
 c3[4,3]: b[4,3] + r[3] - 33 z[4,0] - 91 z[4,1] - 15 z[4,2] - 96 z[4,3]
   - 77 z[4,4] >= 0
 c3[4,4]: b[4,4] + r[4] - 33 z[4,0] - 91 z[4,1] - 15 z[4,2] - 96 z[4,3]
   - 77 z[4,4] >= 0
Bounds
 z[0,0] <= 1
 z[0,1] = 1
 z[0,2] = 1
 z[0,3] = 1
 z[0,4] = 1
 z[1,0] = 1
 z[1,1] = 1
 z[1,2] = 1
 z[1,3] = 1
 z[1,4] = 1
 z[2,0] = 1
 z[2,1] = 1
 z[2,2] = 1
 z[2,3] = 1
 z[2,4] = 1
 z[3,0] = 1
 z[3,1] = 1
 z[3,2] = 1
 z[3,3] = 1
 z[3,4] = 1
 z[4,0] = 1
 z[4,1] = 1
 z[4,2] = 1
 z[4,3] = 1
 z[4,4] = 1
End
